c FILE /home/rafael/Documents/HappySet/MIHS/inputs/happygen/output/graph_scale_free_k5_p0.3_v100_20241127_083842.txt
c SOURCE This is a scale-free graph formed for the happy graph colouring problem.
c DESCRIPTION It was generated using the problem generator of Rhyd Lewis
c
c GRAPH STATS
c Seed                             = -894990298
c Number of Nodes                  = 100
c Number of colours k              = 5
c Number of pre-assignments        = 30
c Number of links per new node     = 5
c Density                          = 0.0979798
c 
c The degrees of nodes 1 to 100, respectively, are as follows 
c [47, 33, 32, 31, 28, 26, 24, 22, 22, 19, 18, 18, 16, 16, 15, 15, 14, 13, 13, 12, 12, 12, 12, 11, 11, 11, 
c  10, 10, 10, 9, 9, 9, 8, 8, 8, 8, 8, 8, 8, 8, 8, 8, 8, 7, 7, 7, 7, 7, 7, 7, 7, 
c  7, 7, 7, 6, 6, 6, 6, 6, 6, 6, 6, 6, 6, 6, 6, 6, 6, 6, 5, 5, 5, 5, 5, 5, 5, 
c  5, 5, 5, 5, 5, 5, 5, 5, 5, 5, 5, 5, 5, 5, 5, 5, 5, 5, 5, 5, 5, 5, 5, 5] 
c  
p edge 100 485 5
e 1 2
e 1 3
e 1 4
e 1 5
e 1 6
e 1 7
e 1 8
e 1 9
e 1 10
e 1 11
e 1 12
e 1 13
e 1 14
e 1 15
e 1 19
e 1 20
e 1 22
e 1 24
e 1 25
e 1 26
e 1 27
e 1 28
e 1 29
e 1 36
e 1 37
e 1 40
e 1 41
e 1 44
e 1 46
e 1 48
e 1 50
e 1 55
e 1 57
e 1 60
e 1 66
e 1 67
e 1 74
e 1 75
e 1 78
e 1 79
e 1 80
e 1 82
e 1 88
e 1 90
e 1 93
e 1 94
e 1 97
e 2 3
e 2 4
e 2 5
e 2 6
e 2 7
e 2 11
e 2 16
e 2 17
e 2 18
e 2 20
e 2 21
e 2 22
e 2 26
e 2 27
e 2 28
e 2 29
e 2 32
e 2 35
e 2 40
e 2 47
e 2 51
e 2 52
e 2 57
e 2 58
e 2 60
e 2 65
e 2 68
e 2 71
e 2 73
e 2 75
e 2 84
e 2 90
e 3 4
e 3 5
e 3 6
e 3 7
e 3 8
e 3 9
e 3 10
e 3 11
e 3 12
e 3 13
e 3 17
e 3 18
e 3 27
e 3 30
e 3 31
e 3 37
e 3 39
e 3 41
e 3 47
e 3 49
e 3 50
e 3 51
e 3 52
e 3 57
e 3 59
e 3 82
e 3 84
e 3 87
e 3 94
e 3 99
e 4 5
e 4 6
e 4 7
e 4 10
e 4 11
e 4 12
e 4 13
e 4 15
e 4 19
e 4 20
e 4 21
e 4 26
e 4 30
e 4 34
e 4 35
e 4 45
e 4 47
e 4 55
e 4 56
e 4 62
e 4 64
e 4 80
e 4 81
e 4 82
e 4 83
e 4 87
e 4 93
e 4 96
e 5 6
e 5 7
e 5 8
e 5 9
e 5 14
e 5 16
e 5 21
e 5 24
e 5 37
e 5 42
e 5 43
e 5 46
e 5 48
e 5 50
e 5 54
e 5 58
e 5 63
e 5 65
e 5 75
e 5 77
e 5 80
e 5 86
e 5 96
e 5 99
e 6 8
e 6 10
e 6 11
e 6 14
e 6 20
e 6 22
e 6 24
e 6 35
e 6 39
e 6 40
e 6 43
e 6 51
e 6 53
e 6 55
e 6 59
e 6 70
e 6 71
e 6 83
e 6 88
e 6 91
e 6 92
e 7 8
e 7 9
e 7 10
e 7 12
e 7 13
e 7 15
e 7 25
e 7 27
e 7 28
e 7 32
e 7 33
e 7 46
e 7 55
e 7 74
e 7 79
e 7 85
e 7 92
e 7 99
e 7 100
e 8 9
e 8 13
e 8 17
e 8 18
e 8 19
e 8 22
e 8 24
e 8 29
e 8 36
e 8 44
e 8 49
e 8 57
e 8 60
e 8 66
e 8 69
e 8 71
e 8 85
e 9 18
e 9 28
e 9 30
e 9 33
e 9 38
e 9 44
e 9 46
e 9 55
e 9 68
e 9 80
e 9 81
e 9 82
e 9 85
e 9 86
e 9 89
e 9 92
e 9 99
e 10 17
e 10 24
e 10 26
e 10 34
e 10 42
e 10 48
e 10 49
e 10 50
e 10 59
e 10 70
e 10 86
e 10 87
e 10 98
e 10 100
e 11 12
e 11 15
e 11 20
e 11 33
e 11 44
e 11 46
e 11 47
e 11 63
e 11 64
e 11 73
e 11 76
e 11 81
e 11 91
e 12 16
e 12 17
e 12 22
e 12 30
e 12 31
e 12 34
e 12 54
e 12 64
e 12 76
e 12 77
e 12 78
e 12 81
e 12 97
e 13 14
e 13 15
e 13 21
e 13 23
e 13 26
e 13 66
e 13 70
e 13 73
e 13 74
e 13 77
e 13 84
e 14 23
e 14 24
e 14 29
e 14 33
e 14 34
e 14 39
e 14 56
e 14 68
e 14 76
e 14 84
e 14 88
e 14 97
e 15 16
e 15 25
e 15 31
e 15 37
e 15 38
e 15 39
e 15 45
e 15 57
e 15 61
e 15 88
e 16 19
e 16 20
e 16 25
e 16 35
e 16 38
e 16 47
e 16 56
e 16 71
e 16 77
e 16 90
e 16 100
e 17 19
e 17 36
e 17 42
e 17 48
e 17 52
e 17 53
e 17 80
e 17 89
e 17 90
e 18 20
e 18 29
e 18 31
e 18 40
e 18 48
e 18 61
e 18 62
e 18 67
e 18 70
e 19 36
e 19 41
e 19 49
e 19 53
e 19 58
e 19 89
e 19 90
e 19 97
e 20 28
e 20 40
e 20 41
e 20 72
e 20 86
e 21 24
e 21 25
e 21 35
e 21 45
e 21 49
e 21 50
e 21 72
e 21 79
e 22 30
e 22 38
e 22 45
e 22 59
e 22 67
e 22 76
e 22 95
e 23 27
e 23 55
e 23 56
e 23 62
e 23 65
e 23 69
e 23 71
e 23 72
e 23 83
e 23 96
e 24 27
e 24 63
e 24 88
e 24 89
e 25 44
e 25 45
e 25 70
e 25 73
e 25 79
e 25 91
e 26 37
e 26 51
e 26 52
e 26 60
e 26 64
e 26 78
e 27 34
e 27 72
e 27 81
e 27 96
e 28 32
e 28 33
e 28 54
e 28 64
e 28 92
e 29 31
e 29 63
e 29 73
e 29 86
e 29 95
e 30 58
e 30 59
e 30 75
e 30 84
e 31 42
e 31 56
e 31 66
e 31 74
e 32 34
e 32 51
e 32 63
e 32 78
e 32 87
e 32 93
e 33 52
e 33 53
e 33 61
e 34 36
e 34 76
e 35 56
e 35 60
e 35 75
e 36 69
e 36 85
e 36 95
e 37 53
e 37 65
e 37 93
e 38 39
e 38 51
e 38 95
e 38 98
e 39 61
e 39 77
e 39 78
e 40 68
e 40 93
e 40 94
e 41 58
e 41 85
e 41 91
e 41 100
e 42 50
e 42 65
e 42 68
e 42 94
e 43 48
e 43 53
e 43 54
e 43 67
e 43 69
e 43 98
e 44 74
e 44 83
e 45 62
e 45 89
e 46 54
e 46 58
e 47 51
e 47 69
e 48 87
e 49 62
e 49 72
e 50 100
e 52 83
e 52 99
e 53 97
e 54 62
e 54 79
e 57 96
e 59 82
e 60 61
e 61 95
e 63 66
e 64 91
e 65 67
e 66 92
e 67 98
e 68 94
e 69 98
n 20 1
n 21 1
n 24 1
n 26 3
n 30 2
n 31 5
n 33 3
n 34 1
n 39 1
n 44 2
n 48 3
n 52 3
n 54 5
n 55 1
n 57 5
n 58 2
n 60 3
n 62 5
n 67 1
n 70 1
n 71 1
n 72 1
n 84 2
n 85 4
n 86 1
n 91 4
n 92 5
n 93 4
n 94 5
n 97 1
